language Essence 1.3

letting class be function(1 --> 2, 2 --> 2, 3 --> 6, 4 --> 3, 5 --> 1, 6 --> 5, 7 --> 7, 8 --> 4)
letting deck_length be 77
letting deck_width be 69
letting length be function(1 --> 4, 2 --> 37, 3 --> 25, 4 --> 14, 5 --> 16, 6 --> 2, 7 --> 26, 8 --> 1)
letting n_classes be 7
letting n_containers be 8
letting separation be function({3, 4} --> 61, {3, 5} --> 28)
letting width be function(1 --> 18, 2 --> 31, 3 --> 57, 4 --> 50, 5 --> 28, 6 --> 12, 7 --> 3, 8 --> 33)
